NAME: CMT2_4
TYPE: CVRP
COMMENT: 835.26 - Cluster Nr.4
DIMENSION: 8
CAPACITY: 140
EDGE_WEIGHT_TYPE: EUC_2D
NODE_COORD_TYPE: TWOD_COORDS
NODE_COORD_SECTION: 
2 45 42
4 35 60
5 33 44
1 30 50
6 41 46
8 40 40
3 35 51
7 29 39
DEPOT_SECTION: 
8
-1
DEMAND_SECTION: 
6 18
8 0
5 20
3 16
7 12
4 1
1 33
2 30
EOF
